p td 600 1410 
535 1
535 14
535 17
535 32
535 41
535 43
535 47
535 52
535 54
535 55
535 56
535 69
535 72
535 73
535 76
535 79
535 85
535 90
535 92
535 96
535 115
535 130
535 142
535 153
535 158
535 159
535 162
535 169
535 170
535 171
535 174
535 177
535 180
535 192
535 199
535 208
535 211
535 212
535 217
535 234
535 236
535 251
535 259
535 266
535 267
535 271
535 274
535 279
535 282
535 285
535 286
535 290
535 303
535 310
535 313
535 319
535 321
535 322
535 326
535 349
535 350
535 363
535 369
535 371
535 374
535 376
535 381
535 384
535 392
535 394
535 407
535 415
535 424
535 427
535 431
535 437
535 447
535 452
535 462
535 464
535 474
535 477
535 486
535 490
535 507
535 511
535 513
535 519
535 528
535 530
535 532
535 533
535 536
535 543
535 545
535 546
535 555
535 556
535 560
535 563
535 567
535 570
535 583
535 584
535 585
535 589
535 590
535 591
535 592
535 594
535 595
535 596
535 599
343 7
343 8
343 20
343 22
343 26
343 28
343 29
343 35
343 39
343 57
343 62
343 66
343 73
343 81
343 84
343 90
343 97
343 99
343 109
343 118
343 121
343 123
343 124
343 128
343 129
343 135
343 143
343 144
343 148
343 158
343 164
343 173
343 177
343 184
343 192
343 193
343 194
343 203
343 204
343 207
343 209
343 214
343 218
343 222
343 223
343 228
343 229
343 230
343 233
343 236
343 244
343 247
343 250
343 257
343 265
343 268
343 271
343 275
343 283
343 288
343 299
343 305
343 306
343 310
343 311
343 313
343 316
343 320
343 323
343 326
343 329
343 330
343 335
343 338
343 347
343 351
343 359
343 361
343 362
343 365
343 367
343 385
343 387
343 392
343 406
343 408
343 421
343 425
343 428
343 429
343 430
343 432
343 438
343 442
343 446
343 450
343 462
343 471
343 483
343 492
343 494
343 506
343 509
343 532
343 540
343 544
343 551
343 552
343 557
343 562
343 572
343 580
343 581
343 582
343 586
343 591
343 592
343 595
422 2
422 21
422 24
422 30
422 31
422 38
422 47
422 54
422 55
422 56
422 57
422 63
422 67
422 74
422 84
422 86
422 87
422 94
422 96
422 101
422 102
422 103
422 104
422 107
422 112
422 115
422 116
422 120
422 124
422 125
422 126
422 133
422 134
422 147
422 148
422 152
422 157
422 158
422 159
422 166
422 173
422 179
422 182
422 184
422 188
422 189
422 192
422 195
422 196
422 200
422 202
422 206
422 209
422 213
422 216
422 217
422 224
422 229
422 232
422 233
422 235
422 240
422 254
422 256
422 262
422 265
422 268
422 279
422 292
422 298
422 313
422 316
422 318
422 331
422 335
422 340
422 347
422 360
422 371
422 380
422 381
422 382
422 383
422 385
422 388
422 390
422 405
422 412
422 437
422 444
422 452
422 455
422 457
422 460
422 462
422 463
422 469
422 489
422 492
422 499
422 505
422 506
422 510
422 512
422 520
422 521
422 522
422 537
422 550
422 554
422 557
422 563
422 567
422 570
422 572
422 573
422 575
422 576
422 578
422 594
422 595
536 5
536 7
536 9
536 16
536 18
536 26
536 34
536 50
536 55
536 56
536 60
536 61
536 72
536 73
536 76
536 78
536 81
536 84
536 89
536 90
536 94
536 95
536 99
536 100
536 101
536 102
536 105
536 112
536 125
536 126
536 127
536 135
536 144
536 146
536 148
536 153
536 154
536 155
536 156
536 158
536 167
536 173
536 175
536 195
536 204
536 209
536 214
536 217
536 218
536 219
536 223
536 229
536 245
536 247
536 249
536 253
536 255
536 260
536 283
536 291
536 295
536 305
536 311
536 323
536 326
536 330
536 331
536 342
536 358
536 361
536 362
536 373
536 378
536 390
536 399
536 405
536 409
536 413
536 416
536 418
536 422
536 426
536 430
536 441
536 442
536 443
536 444
536 447
536 450
536 454
536 457
536 460
536 466
536 467
536 478
536 481
536 483
536 494
536 500
536 514
536 518
536 520
536 521
536 528
536 532
536 541
536 545
536 553
536 554
536 561
536 570
536 572
536 577
536 585
536 589
536 594
268 5
268 7
268 11
268 12
268 19
268 29
268 37
268 44
268 57
268 59
268 70
268 74
268 75
268 76
268 85
268 87
268 96
268 100
268 101
268 107
268 109
268 110
268 116
268 118
268 123
268 128
268 135
268 140
268 143
268 147
268 150
268 166
268 172
268 173
268 179
268 192
268 196
268 197
268 199
268 202
268 205
268 213
268 216
268 218
268 220
268 230
268 231
268 241
268 251
268 253
268 257
268 258
268 271
268 273
268 278
268 279
268 281
268 284
268 285
268 287
268 310
268 311
268 314
268 316
268 317
268 332
268 333
268 335
268 337
268 344
268 347
268 352
268 353
268 365
268 370
268 375
268 377
268 379
268 388
268 396
268 400
268 411
268 418
268 419
268 424
268 430
268 433
268 444
268 447
268 448
268 452
268 457
268 467
268 468
268 473
268 476
268 485
268 489
268 494
268 499
268 507
268 511
268 515
268 516
268 521
268 525
268 537
268 539
268 560
268 568
268 575
268 585
268 596
30 11
30 19
30 20
30 30
30 35
30 41
30 44
30 48
30 50
30 52
30 55
30 58
30 70
30 71
30 72
30 80
30 83
30 90
30 97
30 99
30 107
30 110
30 115
30 118
30 130
30 133
30 134
30 143
30 151
30 157
30 159
30 161
30 171
30 184
30 186
30 187
30 189
30 195
30 198
30 199
30 210
30 218
30 219
30 233
30 236
30 237
30 238
30 243
30 246
30 248
30 258
30 263
30 265
30 282
30 303
30 309
30 312
30 314
30 317
30 318
30 320
30 324
30 326
30 333
30 335
30 341
30 344
30 345
30 350
30 354
30 365
30 373
30 374
30 387
30 388
30 398
30 402
30 403
30 405
30 406
30 409
30 416
30 419
30 425
30 429
30 430
30 432
30 443
30 447
30 450
30 456
30 465
30 470
30 478
30 484
30 498
30 501
30 514
30 515
30 517
30 521
30 522
30 541
30 549
30 561
30 564
30 569
30 573
30 574
30 580
30 581
30 588
30 592
30 594
256 5
256 12
256 21
256 24
256 27
256 28
256 33
256 41
256 46
256 53
256 59
256 67
256 68
256 71
256 95
256 107
256 108
256 113
256 118
256 121
256 122
256 123
256 126
256 135
256 136
256 141
256 146
256 147
256 152
256 157
256 167
256 170
256 178
256 180
256 183
256 199
256 207
256 208
256 218
256 223
256 224
256 227
256 232
256 235
256 243
256 260
256 283
256 288
256 294
256 297
256 306
256 314
256 319
256 320
256 329
256 336
256 341
256 343
256 344
256 358
256 371
256 377
256 385
256 388
256 396
256 399
256 406
256 407
256 408
256 418
256 420
256 421
256 422
256 424
256 426
256 428
256 442
256 443
256 446
256 458
256 463
256 464
256 471
256 473
256 482
256 484
256 487
256 488
256 490
256 504
256 505
256 510
256 519
256 528
256 537
256 545
256 546
256 547
256 549
256 565
256 566
256 568
256 569
256 572
256 577
256 586
18 2
18 8
18 9
18 16
18 19
18 21
18 22
18 42
18 44
18 48
18 53
18 58
18 60
18 65
18 81
18 82
18 83
18 87
18 97
18 100
18 105
18 111
18 114
18 120
18 124
18 129
18 130
18 137
18 140
18 142
18 151
18 155
18 160
18 162
18 165
18 171
18 176
18 179
18 181
18 184
18 188
18 189
18 199
18 202
18 209
18 215
18 223
18 230
18 231
18 232
18 235
18 237
18 242
18 243
18 250
18 283
18 287
18 291
18 293
18 296
18 299
18 304
18 307
18 309
18 314
18 316
18 317
18 322
18 329
18 337
18 342
18 349
18 353
18 359
18 360
18 367
18 370
18 371
18 376
18 377
18 378
18 379
18 384
18 385
18 389
18 408
18 421
18 423
18 428
18 429
18 435
18 443
18 448
18 453
18 454
18 461
18 469
18 476
18 481
18 482
18 500
18 502
18 503
18 525
18 542
18 544
18 549
18 552
18 553
18 555
18 556
18 558
18 559
18 567
18 568
18 569
18 570
18 571
18 582
18 584
18 585
18 594
359 1
359 15
359 19
359 20
359 30
359 45
359 46
359 57
359 58
359 59
359 61
359 77
359 91
359 92
359 97
359 99
359 105
359 106
359 113
359 126
359 132
359 136
359 137
359 138
359 144
359 154
359 155
359 156
359 157
359 159
359 165
359 168
359 179
359 181
359 182
359 184
359 189
359 194
359 196
359 197
359 199
359 200
359 201
359 202
359 204
359 208
359 210
359 214
359 218
359 235
359 250
359 254
359 259
359 264
359 265
359 269
359 273
359 278
359 280
359 285
359 296
359 302
359 314
359 319
359 321
359 322
359 323
359 324
359 325
359 330
359 354
359 355
359 359
359 366
359 387
359 391
359 403
359 408
359 409
359 410
359 414
359 415
359 416
359 423
359 425
359 430
359 433
359 434
359 438
359 442
359 444
359 445
359 456
359 460
359 461
359 468
359 472
359 475
359 478
359 481
359 484
359 486
359 487
359 497
359 501
359 503
359 510
359 513
359 515
359 534
359 535
359 540
359 546
359 548
359 549
359 553
359 558
359 563
359 565
359 566
359 567
359 568
359 575
359 581
359 584
359 586
359 588
359 590
359 595
359 598
359 599
80 21
80 24
80 25
80 32
80 47
80 51
80 53
80 54
80 57
80 58
80 62
80 67
80 83
80 92
80 99
80 106
80 107
80 111
80 119
80 122
80 128
80 130
80 139
80 140
80 145
80 146
80 149
80 151
80 154
80 159
80 163
80 168
80 171
80 172
80 178
80 186
80 187
80 188
80 192
80 194
80 200
80 202
80 210
80 216
80 219
80 223
80 225
80 226
80 227
80 229
80 232
80 233
80 237
80 238
80 248
80 263
80 265
80 269
80 279
80 281
80 296
80 313
80 314
80 319
80 320
80 333
80 339
80 342
80 348
80 349
80 350
80 354
80 357
80 363
80 365
80 367
80 369
80 379
80 380
80 381
80 384
80 389
80 391
80 399
80 403
80 406
80 409
80 414
80 419
80 425
80 446
80 447
80 449
80 453
80 457
80 458
80 461
80 478
80 480
80 492
80 495
80 500
80 502
80 506
80 507
80 511
80 512
80 513
80 514
80 521
80 525
80 527
80 528
80 542
80 544
80 545
80 553
80 554
80 555
80 560
80 566
80 571
80 573
80 574
80 577
80 586
80 598
438 2
438 9
438 19
438 21
438 24
438 32
438 38
438 44
438 46
438 48
438 66
438 68
438 71
438 76
438 78
438 79
438 82
438 83
438 88
438 97
438 98
438 99
438 106
438 109
438 110
438 112
438 117
438 118
438 122
438 129
438 137
438 145
438 151
438 154
438 158
438 160
438 164
438 165
438 167
438 173
438 177
438 193
438 196
438 202
438 203
438 205
438 207
438 208
438 211
438 225
438 233
438 234
438 251
438 252
438 255
438 259
438 264
438 279
438 280
438 301
438 305
438 308
438 318
438 345
438 346
438 347
438 354
438 359
438 361
438 364
438 369
438 378
438 385
438 386
438 397
438 413
438 417
438 418
438 420
438 428
438 435
438 444
438 445
438 446
438 452
438 455
438 465
438 472
438 475
438 478
438 481
438 483
438 486
438 504
438 514
438 516
438 517
438 521
438 526
438 532
438 537
438 538
438 542
438 547
438 554
438 556
438 557
438 578
438 579
438 587
438 588
438 589
438 592
413 4
413 10
413 29
413 36
413 40
413 47
413 48
413 55
413 57
413 63
413 65
413 66
413 77
413 80
413 81
413 84
413 89
413 95
413 98
413 99
413 110
413 116
413 117
413 134
413 135
413 149
413 154
413 158
413 163
413 168
413 169
413 172
413 175
413 178
413 179
413 182
413 186
413 191
413 193
413 200
413 201
413 202
413 203
413 205
413 206
413 207
413 216
413 230
413 233
413 235
413 240
413 243
413 253
413 259
413 262
413 275
413 280
413 299
413 306
413 317
413 318
413 319
413 338
413 345
413 346
413 347
413 349
413 352
413 355
413 356
413 359
413 365
413 374
413 385
413 399
413 416
413 418
413 423
413 424
413 430
413 440
413 443
413 445
413 460
413 467
413 473
413 474
413 493
413 494
413 496
413 498
413 500
413 504
413 506
413 511
413 516
413 524
413 528
413 529
413 533
413 539
413 540
413 548
413 552
413 557
413 558
413 559
413 561
413 563
413 565
413 578
413 582
413 584
413 586
413 592
413 593
